\Problem name: 

Minimize
OBJROW: C
Subject To
C:  - C + rs - ls = -0
violado:  rs - ls <= -0
RS:  72 x(0) + 230 x(1) + 88 x(2) + 234 x(3) + 70.03509 x(4) + 54 x(5) - rs = -0
LS:  3 e_p(0) + 10 e_p(1) + 8 e_p(2) + 9 e_p(3) + 4 e_p(4) + 9 e_p(5) + 30 xij(0,1) + 24 xij(0,2) + 80 xij(1,2) + 27 xij(0,3)
 + 90 xij(1,3) + 72 xij(2,3) + 12 xij(0,4) + 40 xij(1,4) + 32 xij(2,4) + 36 xij(3,4) + 27 xij(0,5) + 90 xij(1,5) + 72 xij(2,5) + 81 xij(3,5)
 + 36 xij(4,5) - ls = -0
eq26(0):  43 x(0) + v(0) = 60
eq27(0):  - v(0) + E <= -0
eq28(0):  - y(0) + E >= -0
eq29(0):  y(0) -60 e(0) <= -0
eq30(0):  - v(0) + y(0) <= -0
eq31(0):  - v(0) + y(0) -60 e(0) >= -60
e_s1(0):  -60 x(0) + e_p(0) <= -0
e_s2(0):  e_p(0) - E <= -0
e_s3(0):  -60 x(0) + e_p(0) - E >= -60
xij1(0,1):  - x(1) + xij(0,1) <= -0
xij2(0,1):  - x(0) + xij(0,1) <= -0
xij3(0,1):  x(0) + x(1) - xij(0,1) <= 1
xij1(0,2):  - x(2) + xij(0,2) <= -0
xij2(0,2):  - x(0) + xij(0,2) <= -0
xij3(0,2):  x(0) + x(2) - xij(0,2) <= 1
xij1(0,3):  - x(3) + xij(0,3) <= -0
xij2(0,3):  - x(0) + xij(0,3) <= -0
xij3(0,3):  x(0) + x(3) - xij(0,3) <= 1
xij1(0,4):  - x(4) + xij(0,4) <= -0
xij2(0,4):  - x(0) + xij(0,4) <= -0
xij3(0,4):  x(0) + x(4) - xij(0,4) <= 1
xij1(0,5):  - x(5) + xij(0,5) <= -0
xij2(0,5):  - x(0) + xij(0,5) <= -0
xij3(0,5):  x(0) + x(5) - xij(0,5) <= 1
eq26(1):  37 x(1) + v(1) = 60
eq27(1):  - v(1) + E <= -0
eq28(1):  - y(1) + E >= -0
eq29(1):  y(1) -60 e(1) <= -0
eq30(1):  - v(1) + y(1) <= -0
eq31(1):  - v(1) + y(1) -60 e(1) >= -60
e_s1(1):  -60 x(1) + e_p(1) <= -0
e_s2(1):  e_p(1) - E <= -0
e_s3(1):  -60 x(1) + e_p(1) - E >= -60
xij1(1,2):  - x(2) + xij(1,2) <= -0
xij2(1,2):  - x(1) + xij(1,2) <= -0
xij3(1,2):  x(1) + x(2) - xij(1,2) <= 1
xij1(1,3):  - x(3) + xij(1,3) <= -0
xij2(1,3):  - x(1) + xij(1,3) <= -0
xij3(1,3):  x(1) + x(3) - xij(1,3) <= 1
xij1(1,4):  - x(4) + xij(1,4) <= -0
xij2(1,4):  - x(1) + xij(1,4) <= -0
xij3(1,4):  x(1) + x(4) - xij(1,4) <= 1
xij1(1,5):  - x(5) + xij(1,5) <= -0
xij2(1,5):  - x(1) + xij(1,5) <= -0
xij3(1,5):  x(1) + x(5) - xij(1,5) <= 1
eq26(2):  51 x(2) + v(2) = 60
eq27(2):  - v(2) + E <= -0
eq28(2):  - y(2) + E >= -0
eq29(2):  y(2) -60 e(2) <= -0
eq30(2):  - v(2) + y(2) <= -0
eq31(2):  - v(2) + y(2) -60 e(2) >= -60
e_s1(2):  -60 x(2) + e_p(2) <= -0
e_s2(2):  e_p(2) - E <= -0
e_s3(2):  -60 x(2) + e_p(2) - E >= -60
xij1(2,3):  - x(3) + xij(2,3) <= -0
xij2(2,3):  - x(2) + xij(2,3) <= -0
xij3(2,3):  x(2) + x(3) - xij(2,3) <= 1
xij1(2,4):  - x(4) + xij(2,4) <= -0
xij2(2,4):  - x(2) + xij(2,4) <= -0
xij3(2,4):  x(2) + x(4) - xij(2,4) <= 1
xij1(2,5):  - x(5) + xij(2,5) <= -0
xij2(2,5):  - x(2) + xij(2,5) <= -0
xij3(2,5):  x(2) + x(5) - xij(2,5) <= 1
eq26(3):  34 x(3) + v(3) = 60
eq27(3):  - v(3) + E <= -0
eq28(3):  - y(3) + E >= -0
eq29(3):  y(3) -60 e(3) <= -0
eq30(3):  - v(3) + y(3) <= -0
eq31(3):  - v(3) + y(3) -60 e(3) >= -60
e_s1(3):  -60 x(3) + e_p(3) <= -0
e_s2(3):  e_p(3) - E <= -0
e_s3(3):  -60 x(3) + e_p(3) - E >= -60
xij1(3,4):  - x(4) + xij(3,4) <= -0
xij2(3,4):  - x(3) + xij(3,4) <= -0
xij3(3,4):  x(3) + x(4) - xij(3,4) <= 1
xij1(3,5):  - x(5) + xij(3,5) <= -0
xij2(3,5):  - x(3) + xij(3,5) <= -0
xij3(3,5):  x(3) + x(5) - xij(3,5) <= 1
eq26(4):  43 x(4) + v(4) = 60
eq27(4):  - v(4) + E <= -0
eq28(4):  - y(4) + E >= -0
eq29(4):  y(4) -60 e(4) <= -0
eq30(4):  - v(4) + y(4) <= -0
eq31(4):  - v(4) + y(4) -60 e(4) >= -60
e_s1(4):  -60 x(4) + e_p(4) <= -0
e_s2(4):  e_p(4) - E <= -0
e_s3(4):  -60 x(4) + e_p(4) - E >= -60
xij1(4,5):  - x(5) + xij(4,5) <= -0
xij2(4,5):  - x(4) + xij(4,5) <= -0
xij3(4,5):  x(4) + x(5) - xij(4,5) <= 1
eq26(5):  54 x(5) + v(5) = 60
eq27(5):  - v(5) + E <= -0
eq28(5):  - y(5) + E >= -0
eq29(5):  y(5) -60 e(5) <= -0
eq30(5):  - v(5) + y(5) <= -0
eq31(5):  - v(5) + y(5) -60 e(5) >= -60
e_s1(5):  -60 x(5) + e_p(5) <= -0
e_s2(5):  e_p(5) - E <= -0
e_s3(5):  -60 x(5) + e_p(5) - E >= -60
eq32:  e(0) + e(1) + e(2) + e(3) + e(4) + e(5) = 1
minimum_jobs:  x(0) + x(1) + x(2) + x(3) + x(4) + x(5) >= 2
Bounds
 0 <= x(0) <= 1
 0 <= x(1) <= 1
 0 <= x(2) <= 1
 0 <= x(3) <= 1
 0 <= x(4) <= 1
 0 <= x(5) <= 1
 0 <= xij(0,0) <= 1
 0 <= xij(1,0) <= 1
 0 <= xij(2,0) <= 1
 0 <= xij(3,0) <= 1
 0 <= xij(4,0) <= 1
 0 <= xij(5,0) <= 1
 0 <= xij(0,1) <= 1
 0 <= xij(1,1) <= 1
 0 <= xij(2,1) <= 1
 0 <= xij(3,1) <= 1
 0 <= xij(4,1) <= 1
 0 <= xij(5,1) <= 1
 0 <= xij(0,2) <= 1
 0 <= xij(1,2) <= 1
 0 <= xij(2,2) <= 1
 0 <= xij(3,2) <= 1
 0 <= xij(4,2) <= 1
 0 <= xij(5,2) <= 1
 0 <= xij(0,3) <= 1
 0 <= xij(1,3) <= 1
 0 <= xij(2,3) <= 1
 0 <= xij(3,3) <= 1
 0 <= xij(4,3) <= 1
 0 <= xij(5,3) <= 1
 0 <= xij(0,4) <= 1
 0 <= xij(1,4) <= 1
 0 <= xij(2,4) <= 1
 0 <= xij(3,4) <= 1
 0 <= xij(4,4) <= 1
 0 <= xij(5,4) <= 1
 0 <= xij(0,5) <= 1
 0 <= xij(1,5) <= 1
 0 <= xij(2,5) <= 1
 0 <= xij(3,5) <= 1
 0 <= xij(4,5) <= 1
 0 <= xij(5,5) <= 1
 0 <= e(0) <= 1
 0 <= e(1) <= 1
 0 <= e(2) <= 1
 0 <= e(3) <= 1
 0 <= e(4) <= 1
 0 <= e(5) <= 1
 -6000 <= C
 -6000 <= rs
 -6000 <= ls
Integers
x(0) x(1) x(2) x(3) x(4) x(5) v(0) v(1) v(2) v(3) 
v(4) v(5) e_p(0) e_p(1) e_p(2) e_p(3) e_p(4) e_p(5) xij(0,0) xij(1,0) 
xij(2,0) xij(3,0) xij(4,0) xij(5,0) xij(0,1) xij(1,1) xij(2,1) xij(3,1) xij(4,1) xij(5,1) 
xij(0,2) xij(1,2) xij(2,2) xij(3,2) xij(4,2) xij(5,2) xij(0,3) xij(1,3) xij(2,3) xij(3,3) 
xij(4,3) xij(5,3) xij(0,4) xij(1,4) xij(2,4) xij(3,4) xij(4,4) xij(5,4) xij(0,5) xij(1,5) 
xij(2,5) xij(3,5) xij(4,5) xij(5,5) y(0) y(1) y(2) y(3) y(4) y(5) 
e(0) e(1) e(2) e(3) e(4) e(5) E rs ls 
End
